Ni2MnIn
1.0
3.0000000000    0.0000000000    0.0000000000
0.0000000000    3.0000000000   0.0000000000
0.0000000000    0.0000000000   3.0000000000
Ni Mn
216 216
Cartesian
0.250000000 0.250000000 0.250000000
0.250000000 0.250000000 1.250000000
0.250000000 0.250000000 2.250000000
0.250000000 1.250000000 0.250000000
0.250000000 1.250000000 1.250000000
0.250000000 1.250000000 2.250000000
0.250000000 2.250000000 0.250000000
0.250000000 2.250000000 1.250000000
0.250000000 2.250000000 2.250000000
1.250000000 0.250000000 0.250000000
1.250000000 0.250000000 1.250000000
1.250000000 0.250000000 2.250000000
1.250000000 1.250000000 0.250000000
1.250000000 1.250000000 1.250000000
1.250000000 1.250000000 2.250000000
1.250000000 2.250000000 0.250000000
1.250000000 2.250000000 1.250000000
1.250000000 2.250000000 2.250000000
2.250000000 0.250000000 0.250000000
2.250000000 0.250000000 1.250000000
2.250000000 0.250000000 2.250000000
2.250000000 1.250000000 0.250000000
2.250000000 1.250000000 1.250000000
2.250000000 1.250000000 2.250000000
2.250000000 2.250000000 0.250000000
2.250000000 2.250000000 1.250000000
2.250000000 2.250000000 2.250000000
0.750000000 0.250000000 0.250000000
0.750000000 0.250000000 1.250000000
0.750000000 0.250000000 2.250000000
0.750000000 1.250000000 0.250000000
0.750000000 1.250000000 1.250000000
0.750000000 1.250000000 2.250000000
0.750000000 2.250000000 0.250000000
0.750000000 2.250000000 1.250000000
0.750000000 2.250000000 2.250000000
1.750000000 0.250000000 0.250000000
1.750000000 0.250000000 1.250000000
1.750000000 0.250000000 2.250000000
1.750000000 1.250000000 0.250000000
1.750000000 1.250000000 1.250000000
1.750000000 1.250000000 2.250000000
1.750000000 2.250000000 0.250000000
1.750000000 2.250000000 1.250000000
1.750000000 2.250000000 2.250000000
2.750000000 0.250000000 0.250000000
2.750000000 0.250000000 1.250000000
2.750000000 0.250000000 2.250000000
2.750000000 1.250000000 0.250000000
2.750000000 1.250000000 1.250000000
2.750000000 1.250000000 2.250000000
2.750000000 2.250000000 0.250000000
2.750000000 2.250000000 1.250000000
2.750000000 2.250000000 2.250000000
0.250000000 0.750000000 0.250000000
0.250000000 0.750000000 1.250000000
0.250000000 0.750000000 2.250000000
0.250000000 1.750000000 0.250000000
0.250000000 1.750000000 1.250000000
0.250000000 1.750000000 2.250000000
0.250000000 2.750000000 0.250000000
0.250000000 2.750000000 1.250000000
0.250000000 2.750000000 2.250000000
1.250000000 0.750000000 0.250000000
1.250000000 0.750000000 1.250000000
1.250000000 0.750000000 2.250000000
1.250000000 1.750000000 0.250000000
1.250000000 1.750000000 1.250000000
1.250000000 1.750000000 2.250000000
1.250000000 2.750000000 0.250000000
1.250000000 2.750000000 1.250000000
1.250000000 2.750000000 2.250000000
2.250000000 0.750000000 0.250000000
2.250000000 0.750000000 1.250000000
2.250000000 0.750000000 2.250000000
2.250000000 1.750000000 0.250000000
2.250000000 1.750000000 1.250000000
2.250000000 1.750000000 2.250000000
2.250000000 2.750000000 0.250000000
2.250000000 2.750000000 1.250000000
2.250000000 2.750000000 2.250000000
0.750000000 0.750000000 0.250000000
0.750000000 0.750000000 1.250000000
0.750000000 0.750000000 2.250000000
0.750000000 1.750000000 0.250000000
0.750000000 1.750000000 1.250000000
0.750000000 1.750000000 2.250000000
0.750000000 2.750000000 0.250000000
0.750000000 2.750000000 1.250000000
0.750000000 2.750000000 2.250000000
1.750000000 0.750000000 0.250000000
1.750000000 0.750000000 1.250000000
1.750000000 0.750000000 2.250000000
1.750000000 1.750000000 0.250000000
1.750000000 1.750000000 1.250000000
1.750000000 1.750000000 2.250000000
1.750000000 2.750000000 0.250000000
1.750000000 2.750000000 1.250000000
1.750000000 2.750000000 2.250000000
2.750000000 0.750000000 0.250000000
2.750000000 0.750000000 1.250000000
2.750000000 0.750000000 2.250000000
2.750000000 1.750000000 0.250000000
2.750000000 1.750000000 1.250000000
2.750000000 1.750000000 2.250000000
2.750000000 2.750000000 0.250000000
2.750000000 2.750000000 1.250000000
2.750000000 2.750000000 2.250000000
0.250000000 0.250000000 0.750000000
0.250000000 0.250000000 1.750000000
0.250000000 0.250000000 2.750000000
0.250000000 1.250000000 0.750000000
0.250000000 1.250000000 1.750000000
0.250000000 1.250000000 2.750000000
0.250000000 2.250000000 0.750000000
0.250000000 2.250000000 1.750000000
0.250000000 2.250000000 2.750000000
1.250000000 0.250000000 0.750000000
1.250000000 0.250000000 1.750000000
1.250000000 0.250000000 2.750000000
1.250000000 1.250000000 0.750000000
1.250000000 1.250000000 1.750000000
1.250000000 1.250000000 2.750000000
1.250000000 2.250000000 0.750000000
1.250000000 2.250000000 1.750000000
1.250000000 2.250000000 2.750000000
2.250000000 0.250000000 0.750000000
2.250000000 0.250000000 1.750000000
2.250000000 0.250000000 2.750000000
2.250000000 1.250000000 0.750000000
2.250000000 1.250000000 1.750000000
2.250000000 1.250000000 2.750000000
2.250000000 2.250000000 0.750000000
2.250000000 2.250000000 1.750000000
2.250000000 2.250000000 2.750000000
0.750000000 0.250000000 0.750000000
0.750000000 0.250000000 1.750000000
0.750000000 0.250000000 2.750000000
0.750000000 1.250000000 0.750000000
0.750000000 1.250000000 1.750000000
0.750000000 1.250000000 2.750000000
0.750000000 2.250000000 0.750000000
0.750000000 2.250000000 1.750000000
0.750000000 2.250000000 2.750000000
1.750000000 0.250000000 0.750000000
1.750000000 0.250000000 1.750000000
1.750000000 0.250000000 2.750000000
1.750000000 1.250000000 0.750000000
1.750000000 1.250000000 1.750000000
1.750000000 1.250000000 2.750000000
1.750000000 2.250000000 0.750000000
1.750000000 2.250000000 1.750000000
1.750000000 2.250000000 2.750000000
2.750000000 0.250000000 0.750000000
2.750000000 0.250000000 1.750000000
2.750000000 0.250000000 2.750000000
2.750000000 1.250000000 0.750000000
2.750000000 1.250000000 1.750000000
2.750000000 1.250000000 2.750000000
2.750000000 2.250000000 0.750000000
2.750000000 2.250000000 1.750000000
2.750000000 2.250000000 2.750000000
0.250000000 0.750000000 0.750000000
0.250000000 0.750000000 1.750000000
0.250000000 0.750000000 2.750000000
0.250000000 1.750000000 0.750000000
0.250000000 1.750000000 1.750000000
0.250000000 1.750000000 2.750000000
0.250000000 2.750000000 0.750000000
0.250000000 2.750000000 1.750000000
0.250000000 2.750000000 2.750000000
1.250000000 0.750000000 0.750000000
1.250000000 0.750000000 1.750000000
1.250000000 0.750000000 2.750000000
1.250000000 1.750000000 0.750000000
1.250000000 1.750000000 1.750000000
1.250000000 1.750000000 2.750000000
1.250000000 2.750000000 0.750000000
1.250000000 2.750000000 1.750000000
1.250000000 2.750000000 2.750000000
2.250000000 0.750000000 0.750000000
2.250000000 0.750000000 1.750000000
2.250000000 0.750000000 2.750000000
2.250000000 1.750000000 0.750000000
2.250000000 1.750000000 1.750000000
2.250000000 1.750000000 2.750000000
2.250000000 2.750000000 0.750000000
2.250000000 2.750000000 1.750000000
2.250000000 2.750000000 2.750000000
0.750000000 0.750000000 0.750000000
0.750000000 0.750000000 1.750000000
0.750000000 0.750000000 2.750000000
0.750000000 1.750000000 0.750000000
0.750000000 1.750000000 1.750000000
0.750000000 1.750000000 2.750000000
0.750000000 2.750000000 0.750000000
0.750000000 2.750000000 1.750000000
0.750000000 2.750000000 2.750000000
1.750000000 0.750000000 0.750000000
1.750000000 0.750000000 1.750000000
1.750000000 0.750000000 2.750000000
1.750000000 1.750000000 0.750000000
1.750000000 1.750000000 1.750000000
1.750000000 1.750000000 2.750000000
1.750000000 2.750000000 0.750000000
1.750000000 2.750000000 1.750000000
1.750000000 2.750000000 2.750000000
2.750000000 0.750000000 0.750000000
2.750000000 0.750000000 1.750000000
2.750000000 0.750000000 2.750000000
2.750000000 1.750000000 0.750000000
2.750000000 1.750000000 1.750000000
2.750000000 1.750000000 2.750000000
2.750000000 2.750000000 0.750000000
2.750000000 2.750000000 1.750000000
2.750000000 2.750000000 2.750000000
0.000000000 0.000000000 0.500000000
0.000000000 0.000000000 1.500000000
0.000000000 0.000000000 2.500000000
0.000000000 1.000000000 0.500000000
0.000000000 1.000000000 1.500000000
0.000000000 1.000000000 2.500000000
0.000000000 2.000000000 0.500000000
0.000000000 2.000000000 1.500000000
0.000000000 2.000000000 2.500000000
1.000000000 0.000000000 0.500000000
1.000000000 0.000000000 1.500000000
1.000000000 0.000000000 2.500000000
1.000000000 1.000000000 0.500000000
1.000000000 1.000000000 1.500000000
1.000000000 1.000000000 2.500000000
1.000000000 2.000000000 0.500000000
1.000000000 2.000000000 1.500000000
1.000000000 2.000000000 2.500000000
2.000000000 0.000000000 0.500000000
2.000000000 0.000000000 1.500000000
2.000000000 0.000000000 2.500000000
2.000000000 1.000000000 0.500000000
2.000000000 1.000000000 1.500000000
2.000000000 1.000000000 2.500000000
2.000000000 2.000000000 0.500000000
2.000000000 2.000000000 1.500000000
2.000000000 2.000000000 2.500000000
0.500000000 0.000000000 0.000000000
0.500000000 0.000000000 1.000000000
0.500000000 0.000000000 2.000000000
0.500000000 1.000000000 0.000000000
0.500000000 1.000000000 1.000000000
0.500000000 1.000000000 2.000000000
0.500000000 2.000000000 0.000000000
0.500000000 2.000000000 1.000000000
0.500000000 2.000000000 2.000000000
1.500000000 0.000000000 0.000000000
1.500000000 0.000000000 1.000000000
1.500000000 0.000000000 2.000000000
1.500000000 1.000000000 0.000000000
1.500000000 1.000000000 1.000000000
1.500000000 1.000000000 2.000000000
1.500000000 2.000000000 0.000000000
1.500000000 2.000000000 1.000000000
1.500000000 2.000000000 2.000000000
2.500000000 0.000000000 0.000000000
2.500000000 0.000000000 1.000000000
2.500000000 0.000000000 2.000000000
2.500000000 1.000000000 0.000000000
2.500000000 1.000000000 1.000000000
2.500000000 1.000000000 2.000000000
2.500000000 2.000000000 0.000000000
2.500000000 2.000000000 1.000000000
2.500000000 2.000000000 2.000000000
0.500000000 0.000000000 0.500000000
0.500000000 0.000000000 1.500000000
0.500000000 0.000000000 2.500000000
0.500000000 1.000000000 0.500000000
0.500000000 1.000000000 1.500000000
0.500000000 1.000000000 2.500000000
0.500000000 2.000000000 0.500000000
0.500000000 2.000000000 1.500000000
0.500000000 2.000000000 2.500000000
1.500000000 0.000000000 0.500000000
1.500000000 0.000000000 1.500000000
1.500000000 0.000000000 2.500000000
1.500000000 1.000000000 0.500000000
1.500000000 1.000000000 1.500000000
1.500000000 1.000000000 2.500000000
1.500000000 2.000000000 0.500000000
1.500000000 2.000000000 1.500000000
1.500000000 2.000000000 2.500000000
2.500000000 0.000000000 0.500000000
2.500000000 0.000000000 1.500000000
2.500000000 0.000000000 2.500000000
2.500000000 1.000000000 0.500000000
2.500000000 1.000000000 1.500000000
2.500000000 1.000000000 2.500000000
2.500000000 2.000000000 0.500000000
2.500000000 2.000000000 1.500000000
2.500000000 2.000000000 2.500000000
0.000000000 0.500000000 0.000000000
0.000000000 0.500000000 1.000000000
0.000000000 0.500000000 2.000000000
0.000000000 1.500000000 0.000000000
0.000000000 1.500000000 1.000000000
0.000000000 1.500000000 2.000000000
0.000000000 2.500000000 0.000000000
0.000000000 2.500000000 1.000000000
0.000000000 2.500000000 2.000000000
1.000000000 0.500000000 0.000000000
1.000000000 0.500000000 1.000000000
1.000000000 0.500000000 2.000000000
1.000000000 1.500000000 0.000000000
1.000000000 1.500000000 1.000000000
1.000000000 1.500000000 2.000000000
1.000000000 2.500000000 0.000000000
1.000000000 2.500000000 1.000000000
1.000000000 2.500000000 2.000000000
2.000000000 0.500000000 0.000000000
2.000000000 0.500000000 1.000000000
2.000000000 0.500000000 2.000000000
2.000000000 1.500000000 0.000000000
2.000000000 1.500000000 1.000000000
2.000000000 1.500000000 2.000000000
2.000000000 2.500000000 0.000000000
2.000000000 2.500000000 1.000000000
2.000000000 2.500000000 2.000000000
0.000000000 0.500000000 0.500000000
0.000000000 0.500000000 1.500000000
0.000000000 0.500000000 2.500000000
0.000000000 1.500000000 0.500000000
0.000000000 1.500000000 1.500000000
0.000000000 1.500000000 2.500000000
0.000000000 2.500000000 0.500000000
0.000000000 2.500000000 1.500000000
0.000000000 2.500000000 2.500000000
1.000000000 0.500000000 0.500000000
1.000000000 0.500000000 1.500000000
1.000000000 0.500000000 2.500000000
1.000000000 1.500000000 0.500000000
1.000000000 1.500000000 1.500000000
1.000000000 1.500000000 2.500000000
1.000000000 2.500000000 0.500000000
1.000000000 2.500000000 1.500000000
1.000000000 2.500000000 2.500000000
2.000000000 0.500000000 0.500000000
2.000000000 0.500000000 1.500000000
2.000000000 0.500000000 2.500000000
2.000000000 1.500000000 0.500000000
2.000000000 1.500000000 1.500000000
2.000000000 1.500000000 2.500000000
2.000000000 2.500000000 0.500000000
2.000000000 2.500000000 1.500000000
2.000000000 2.500000000 2.500000000
0.500000000 0.500000000 0.000000000
0.500000000 0.500000000 1.000000000
0.500000000 0.500000000 2.000000000
0.500000000 1.500000000 0.000000000
0.500000000 1.500000000 1.000000000
0.500000000 1.500000000 2.000000000
0.500000000 2.500000000 0.000000000
0.500000000 2.500000000 1.000000000
0.500000000 2.500000000 2.000000000
1.500000000 0.500000000 0.000000000
1.500000000 0.500000000 1.000000000
1.500000000 0.500000000 2.000000000
1.500000000 1.500000000 0.000000000
1.500000000 1.500000000 1.000000000
1.500000000 1.500000000 2.000000000
1.500000000 2.500000000 0.000000000
1.500000000 2.500000000 1.000000000
1.500000000 2.500000000 2.000000000
2.500000000 0.500000000 0.000000000
2.500000000 0.500000000 1.000000000
2.500000000 0.500000000 2.000000000
2.500000000 1.500000000 0.000000000
2.500000000 1.500000000 1.000000000
2.500000000 1.500000000 2.000000000
2.500000000 2.500000000 0.000000000
2.500000000 2.500000000 1.000000000
2.500000000 2.500000000 2.000000000
0.000000000 0.000000000 0.000000000
0.000000000 0.000000000 1.000000000
0.000000000 0.000000000 2.000000000
0.000000000 1.000000000 0.000000000
0.000000000 1.000000000 1.000000000
0.000000000 1.000000000 2.000000000
0.000000000 2.000000000 0.000000000
0.000000000 2.000000000 1.000000000
0.000000000 2.000000000 2.000000000
1.000000000 0.000000000 0.000000000
1.000000000 0.000000000 1.000000000
1.000000000 0.000000000 2.000000000
1.000000000 1.000000000 0.000000000
1.000000000 1.000000000 1.000000000
1.000000000 1.000000000 2.000000000
1.000000000 2.000000000 0.000000000
1.000000000 2.000000000 1.000000000
1.000000000 2.000000000 2.000000000
2.000000000 0.000000000 0.000000000
2.000000000 0.000000000 1.000000000
2.000000000 0.000000000 2.000000000
2.000000000 1.000000000 0.000000000
2.000000000 1.000000000 1.000000000
2.000000000 1.000000000 2.000000000
2.000000000 2.000000000 0.000000000
2.000000000 2.000000000 1.000000000
2.000000000 2.000000000 2.000000000
0.500000000 0.500000000 0.500000000
0.500000000 0.500000000 1.500000000
0.500000000 0.500000000 2.500000000
0.500000000 1.500000000 0.500000000
0.500000000 1.500000000 1.500000000
0.500000000 1.500000000 2.500000000
0.500000000 2.500000000 0.500000000
0.500000000 2.500000000 1.500000000
0.500000000 2.500000000 2.500000000
1.500000000 0.500000000 0.500000000
1.500000000 0.500000000 1.500000000
1.500000000 0.500000000 2.500000000
1.500000000 1.500000000 0.500000000
1.500000000 1.500000000 1.500000000
1.500000000 1.500000000 2.500000000
1.500000000 2.500000000 0.500000000
1.500000000 2.500000000 1.500000000
1.500000000 2.500000000 2.500000000
2.500000000 0.500000000 0.500000000
2.500000000 0.500000000 1.500000000
2.500000000 0.500000000 2.500000000
2.500000000 1.500000000 0.500000000
2.500000000 1.500000000 1.500000000
2.500000000 1.500000000 2.500000000
2.500000000 2.500000000 0.500000000
2.500000000 2.500000000 1.500000000
2.500000000 2.500000000 2.500000000